1506.07
0 47 46 57 70 50 22 35 60 2 23 48 73 51 69 43 62 5 32 58 4 6 65 45 72 24 18 34 28 71 13 68 40 17 41 33 7 54 21 29 9 20 36 27 16 66 25 39 30 1 49 37 14 3 8 31 12 42 10 67 61 63 53 15 74 19 64 11 44 59 56 52 38 26 55
